<number of tasks>
20


<number of equipment>
5


<cycle time>
1000


<investment costs>
1,7340
2,18284
3,21633
4,17795
5,15674


<task times>
1,214,151,-1,220,-1
2,404,282,-1,-1,300
3,326,262,-1,-1,308
4,344,260,-1,-1,276
5,453,212,-1,-1,271
6,-1,-1,169,-1,206
7,445,325,-1,-1,325
8,410,117,-1,252,-1
9,370,275,-1,-1,299
10,369,164,-1,193,-1
11,-1,-1,342,-1,314
12,368,262,-1,-1,273
13,-1,-1,217,-1,282
14,418,193,-1,-1,247
15,470,287,-1,390,-1
16,433,203,-1,-1,249
17,446,182,-1,145,-1
18,432,208,-1,-1,207
19,403,265,-1,273,-1
20,305,232,-1,261,-1


<precedence relations>
1,6
1,7
2,8
2,9
2,11
4,10
10,12
11,13
12,14
12,15
13,16
15,18
15,19
15,20
16,17


<task types>
1,2
2,3
3,3
4,3
5,3
6,1
7,3
8,2
9,3
10,2
11,1
12,3
13,1
14,3
15,2
16,3
17,2
18,3
19,2
20,2


<line depot>
1,7
2,1
3,0
4,0
5,2


<processing costs>
1,14400
2,14400
3,7200
4,7200
5,14400


<saving costs>
1,734
2,1828
3,2163
4,1779
5,1567


<end>
